data;


param d:= 100;
param r:=5;
param p:=0.740000;
param M:=1000;
param U:=
         1         1       -4.086622e-02
         2         1        1.085732e+00
         3         1       -7.427925e-01
         4         1        2.158516e-01
         5         1       -6.231113e-01
         6         1       -1.408003e-01
         7         1        1.165598e+00
         8         1       -6.250826e-01
         9         1       -3.698378e-01
        10         1        7.228431e-02
        11         1        8.576315e-01
        12         1        2.428243e+00
        13         1        1.647654e+00
        14         1       -1.334315e+00
        15         1        1.485618e+00
        16         1        3.696596e-01
        17         1       -1.398440e+00
        18         1       -3.940853e-01
        19         1        1.177077e+00
        20         1       -4.508839e-01
        21         1        4.387306e-02
        22         1        2.220342e-01
        23         1        6.831931e-01
        24         1       -2.513768e-01
        25         1       -1.520702e+00
        26         1       -6.651416e-01
        27         1        2.379929e-01
        28         1       -5.308761e-03
        29         1       -1.713576e+00
        30         1        3.474171e-01
        31         1        3.527530e-01
        32         1       -2.135965e+00
        33         1       -3.926506e-01
        34         1       -8.306685e-01
        35         1       -8.528231e-01
        36         1       -3.456680e-01
        37         1        3.860314e-01
        38         1        2.271734e-01
        39         1        6.086506e-01
        40         1        1.856610e+00
        41         1        7.064345e-01
        42         1        5.852738e-01
        43         1        2.119455e-01
        44         1        2.725700e-01
        45         1       -2.649073e-01
        46         1        1.019681e+00
        47         1        2.826927e-01
        48         1       -5.537429e-01
        49         1        1.051749e+00
        50         1       -1.393911e-01
        51         1       -7.577424e-01
        52         1        1.244513e+00
        53         1        9.694407e-01
        54         1        2.111296e-01
        55         1        6.523765e-01
        56         1        7.874640e-01
        57         1       -1.756657e+00
        58         1       -8.055790e-01
        59         1       -1.221118e-01
        60         1       -6.782495e-01
        61         1        1.730920e+00
        62         1        1.260822e+00
        63         1       -5.884399e-01
        64         1        5.006408e-01
        65         1        9.040946e-01
        66         1        2.757097e+00
        67         1       -1.635353e+00
        68         1        9.242289e-01
        69         1       -3.311092e-01
        70         1       -6.389420e-01
        71         1        8.999374e-01
        72         1       -2.240378e-01
        73         1       -7.752971e-01
        74         1        3.868022e-01
        75         1        1.015320e+00
        76         1        2.744044e-03
        77         1       -2.802630e-01
        78         1       -1.044297e+00
        79         1       -1.056957e+00
        80         1        2.330039e+00
        81         1        6.377614e-01
        82         1        1.079961e+00
        83         1       -9.824801e-02
        84         1        1.452589e+00
        85         1       -1.585920e+00
        86         1       -2.670363e-01
        87         1       -9.416005e-01
        88         1       -2.289206e-01
        89         1       -1.496982e+00
        90         1       -5.908270e-01
        91         1       -4.214465e-01
        92         1       -3.690375e-01
        93         1        1.043638e+00
        94         1        8.427959e-01
        95         1       -1.603460e-02
        96         1        1.043903e+00
        97         1       -5.380472e-01
        98         1       -3.226154e-04
        99         1        1.192496e+00
       100         1       -6.579936e-01
         1         2       -1.022145e+00
         2         2        5.866584e-01
         3         2        4.581477e-01
         4         2        5.548406e-01
         5         2       -1.694170e-01
         6         2        9.489920e-01
         7         2        1.417708e+00
         8         2        2.902578e+00
         9         2       -1.080940e+00
        10         2       -1.029220e+00
        11         2       -1.019971e+00
        12         2       -1.431824e+00
        13         2       -8.962023e-01
        14         2       -1.119589e+00
        15         2        1.549784e-02
        16         2       -9.188412e-01
        17         2        2.631240e-01
        18         2       -5.208754e-01
        19         2       -4.586913e-01
        20         2       -2.746458e-01
        21         2       -1.195711e+00
        22         2       -6.609071e-01
        23         2       -2.113758e+00
        24         2       -5.124164e-01
        25         2       -3.990550e-01
        26         2       -1.523528e+00
        27         2       -4.205146e-01
        28         2        5.993695e-01
        29         2        4.706267e-02
        30         2        4.555940e-01
        31         2       -1.102462e+00
        32         2       -4.504952e-01
        33         2       -7.995073e-02
        34         2       -1.493356e+00
        35         2        1.594783e+00
        36         2        1.425679e+00
        37         2        6.520757e-01
        38         2       -3.847243e-01
        39         2        6.416640e-01
        40         2       -2.109359e+00
        41         2       -4.110110e-02
        42         2        3.414341e-01
        43         2       -7.039945e-01
        44         2       -2.021699e-01
        45         2       -4.063495e-01
        46         2        1.926019e+00
        47         2       -1.558452e+00
        48         2       -3.849800e-01
        49         2       -5.350366e-01
        50         2       -1.508651e+00
        51         2       -5.061352e-01
        52         2       -7.518454e-01
        53         2        1.090597e-01
        54         2        5.052152e-01
        55         2        1.961844e+00
        56         2        1.580705e+00
        57         2       -4.287762e-02
        58         2        6.866581e-02
        59         2        9.079168e-01
        60         2        1.051456e+00
        61         2        2.842286e+00
        62         2       -2.732119e-01
        63         2        9.977678e-02
        64         2        1.159239e+00
        65         2        1.909188e-01
        66         2        5.351043e-01
        67         2       -3.094793e-01
        68         2       -1.229862e+00
        69         2        2.308697e-01
        70         2        4.129017e-01
        71         2       -2.415747e+00
        72         2        6.600575e-01
        73         2       -8.740331e-02
        74         2       -1.276001e+00
        75         2       -1.183051e+00
        76         2       -4.700056e-01
        77         2        4.104632e-01
        78         2        1.422648e+00
        79         2       -9.689157e-01
        80         2       -3.089717e+00
        81         2       -1.387344e+00
        82         2       -1.555494e+00
        83         2        4.175333e-01
        84         2        2.696839e-01
        85         2       -1.525118e+00
        86         2       -1.002464e+00
        87         2       -6.447470e-02
        88         2        2.000645e+00
        89         2       -6.331392e-01
        90         2        1.670656e+00
        91         2       -2.191879e-01
        92         2       -1.264265e+00
        93         2        5.959134e-01
        94         2       -5.296735e-01
        95         2       -1.119813e+00
        96         2       -4.527579e-01
        97         2        4.885542e-01
        98         2        2.329709e-01
        99         2       -9.270213e-01
       100         2       -1.314661e+00
         1         3        1.254969e+00
         2         3        1.294805e+00
         3         3       -1.909397e+00
         4         3       -4.036415e-01
         5         3       -4.529771e-01
         6         3        6.166651e-01
         7         3       -2.415187e-01
         8         3        7.250575e-01
         9         3        5.079981e-01
        10         3        1.896859e+00
        11         3       -1.674535e+00
        12         3       -2.532032e-02
        13         3        3.775622e-01
        14         3       -1.529128e+00
        15         3       -1.823030e+00
        16         3        2.799986e-01
        17         3        2.274561e+00
        18         3       -7.037362e-01
        19         3       -6.071428e-03
        20         3       -1.178087e+00
        21         3       -1.115759e+00
        22         3       -2.323237e-01
        23         3       -1.132696e+00
        24         3        7.611729e-01
        25         3       -3.605307e-02
        26         3       -1.643031e-01
        27         3       -5.541486e-01
        28         3       -9.899352e-02
        29         3       -1.352432e-03
        30         3        7.909427e-01
        31         3       -1.465320e+00
        32         3       -5.079275e-01
        33         3       -1.471369e+00
        34         3        6.024694e-01
        35         3       -6.325329e-01
        36         3       -1.979866e+00
        37         3       -1.192435e+00
        38         3       -5.486646e-01
        39         3       -2.636642e-01
        40         3        4.044504e-01
        41         3        4.267909e-01
        42         3        6.805411e-01
        43         3       -4.387508e-01
        44         3        1.471081e+00
        45         3        5.086052e-02
        46         3        1.226156e+00
        47         3        1.624104e+00
        48         3       -1.229453e+00
        49         3       -5.628852e-01
        50         3        1.602304e-02
        51         3        4.649822e-01
        52         3       -1.851385e+00
        53         3       -5.949386e-01
        54         3        8.758624e-01
        55         3        6.436686e-01
        56         3        1.093943e+00
        57         3        6.951799e-01
        58         3        2.048083e-02
        59         3        2.189983e+00
        60         3       -7.527330e-01
        61         3        7.230375e-01
        62         3       -1.903163e+00
        63         3        3.457807e-01
        64         3       -1.302931e+00
        65         3       -1.338204e+00
        66         3        4.693680e-01
        67         3       -2.388343e-01
        68         3        7.279177e-01
        69         3       -3.037654e-02
        70         3        2.602313e-01
        71         3        8.460728e-02
        72         3       -1.325039e+00
        73         3       -7.704427e-01
        74         3       -2.983522e-01
        75         3        2.352324e+00
        76         3       -1.313766e+00
        77         3        9.566048e-01
        78         3       -4.296692e-01
        79         3        1.936002e+00
        80         3       -2.636096e+00
        81         3       -1.297904e+00
        82         3        1.270620e+00
        83         3        1.216908e+00
        84         3       -9.807411e-01
        85         3        7.139820e-01
        86         3       -3.505268e-01
        87         3       -4.489683e-01
        88         3        1.034472e+00
        89         3       -1.165626e+00
        90         3        5.183672e-01
        91         3        7.416650e-02
        92         3        1.341987e+00
        93         3        1.745952e-02
        94         3        9.885932e-01
        95         3        8.399489e-01
        96         3        1.204575e+00
        97         3        5.528772e-01
        98         3        2.379561e+00
        99         3       -2.294319e-01
       100         3       -1.631452e+00
         1         4       -7.382331e-01
         2         4        3.685148e-01
         3         4        1.180593e+00
         4         4        1.847481e+00
         5         4       -3.938918e-01
         6         4        1.848377e-01
         7         4        2.188167e-02
         8         4       -2.253762e-01
         9         4       -1.082586e+00
        10         4        1.550569e+00
        11         4       -6.609860e-01
        12         4       -5.621364e-01
        13         4        4.371029e-01
        14         4        6.222054e-01
        15         4        1.017719e-01
        16         4       -6.686226e-01
        17         4        1.040322e+00
        18         4       -5.489873e-01
        19         4        3.418812e-01
        20         4       -8.364490e-01
        21         4       -7.069577e-01
        22         4       -9.099283e-01
        23         4        1.359389e+00
        24         4        1.406221e+00
        25         4        4.885033e-01
        26         4        1.108811e-01
        27         4        1.363076e+00
        28         4       -2.410949e-01
        29         4       -1.451365e+00
        30         4       -1.989391e+00
        31         4       -1.750023e+00
        32         4        1.556200e-01
        33         4        3.527719e-01
        34         4       -1.506819e+00
        35         4       -2.440583e-01
        36         4       -1.905014e+00
        37         4        4.739601e-01
        38         4        3.000126e+00
        39         4        7.116127e-01
        40         4       -1.958307e-01
        41         4        1.288042e-01
        42         4        5.639518e-01
        43         4       -4.076025e-01
        44         4       -7.620836e-01
        45         4       -1.906841e-01
        46         4        1.573498e+00
        47         4        3.501253e-01
        48         4        2.520249e-01
        49         4        5.848282e-01
        50         4        6.133621e-01
        51         4        1.994907e-01
        52         4       -1.849062e+00
        53         4       -7.677425e-01
        54         4        2.357055e+00
        55         4       -7.251681e-01
        56         4       -8.188835e-01
        57         4       -1.384853e+00
        58         4        4.208051e-01
        59         4        5.270350e-01
        60         4        1.346294e+00
        61         4        9.009641e-01
        62         4        9.393062e-01
        63         4       -9.649763e-01
        64         4       -1.016623e+00
        65         4        2.053459e-01
        66         4       -2.852887e+00
        67         4        8.176097e-01
        68         4        6.528586e-01
        69         4        4.224096e-01
        70         4       -3.666157e-01
        71         4       -9.214018e-01
        72         4        6.357159e-01
        73         4       -2.291066e-01
        74         4        7.819912e-01
        75         4        1.335842e+00
        76         4       -9.625227e-01
        77         4        1.223036e-01
        78         4       -2.349024e+00
        79         4       -8.916083e-01
        80         4       -1.459239e-01
        81         4        1.024878e+00
        82         4        1.254378e-01
        83         4       -1.436203e+00
        84         4        9.177968e-01
        85         4       -7.390370e-01
        86         4       -2.384865e-01
        87         4       -3.597375e-01
        88         4        1.759733e-01
        89         4       -1.021569e-01
        90         4       -2.267203e-02
        91         4       -9.790321e-04
        92         4        5.176119e-01
        93         4       -3.522379e-01
        94         4       -6.435090e-01
        95         4        1.042569e+00
        96         4       -8.708247e-01
        97         4        5.673193e-01
        98         4        1.882199e+00
        99         4       -1.282156e+00
       100         4       -1.142517e-01
         1         5        5.632853e-01
         2         5       -1.117939e-01
         3         5       -1.925037e-01
         4         5       -1.822987e+00
         5         5       -9.532684e-01
         6         5       -1.198394e+00
         7         5       -1.260163e+00
         8         5        3.139788e-01
         9         5       -5.259614e-01
        10         5        1.006659e-01
        11         5        1.191174e+00
        12         5        1.322751e-01
        13         5       -5.712335e-01
        14         5        1.537827e+00
        15         5        5.041453e-01
        16         5       -1.034225e-01
        17         5        1.419471e+00
        18         5        1.476022e+00
        19         5        3.569366e-03
        20         5        1.123329e-01
        21         5       -9.150292e-01
        22         5       -4.855571e-01
        23         5        5.716643e-02
        24         5        2.074489e+00
        25         5        1.793203e+00
        26         5        1.523587e+00
        27         5       -1.587648e+00
        28         5        8.282982e-01
        29         5       -1.183457e+00
        30         5       -3.011511e-01
        31         5        2.527443e-01
        32         5       -7.606694e-01
        33         5       -9.269187e-01
        34         5       -1.045251e+00
        35         5        3.668774e-01
        36         5        4.919099e-01
        37         5       -1.288868e+00
        38         5       -1.360564e+00
        39         5        2.739581e+00
        40         5        7.072937e-01
        41         5        2.890019e+00
        42         5       -8.691189e-01
        43         5       -1.597387e-01
        44         5        7.295499e-01
        45         5        3.147619e-01
        46         5       -2.122164e-02
        47         5       -1.520062e+00
        48         5        7.510471e-01
        49         5        8.832801e-01
        50         5       -2.134566e+00
        51         5        6.095998e-01
        52         5       -4.504795e-01
        53         5       -8.766978e-01
        54         5        6.799006e-01
        55         5       -1.037906e+00
        56         5       -6.385567e-01
        57         5        8.444480e-01
        58         5       -6.369091e-01
        59         5        1.546426e+00
        60         5       -5.492206e-01
        61         5       -4.618470e-01
        62         5        3.900097e-02
        63         5        1.383587e+00
        64         5       -2.091890e-01
        65         5        5.300250e-01
        66         5        4.635263e-01
        67         5       -5.222482e-01
        68         5        2.182934e-01
        69         5        1.114319e+00
        70         5       -1.664604e+00
        71         5       -1.016686e+00
        72         5       -5.973190e-01
        73         5       -5.015589e-01
        74         5       -1.826396e-01
        75         5       -5.696141e-01
        76         5        5.316477e-01
        77         5       -3.394049e-01
        78         5       -1.520012e+00
        79         5        1.042763e+00
        80         5       -6.063263e-01
        81         5        1.530255e+00
        82         5       -4.032037e-01
        83         5        6.941517e-01
        84         5        5.775329e-01
        85         5       -1.446343e+00
        86         5       -1.202959e+00
        87         5        2.543804e+00
        88         5        4.365154e-01
        89         5        8.310827e-01
        90         5       -4.707078e-01
        91         5       -4.925370e-03
        92         5        1.659472e+00
        93         5       -8.394113e-01
        94         5        2.440309e-01
        95         5        1.381763e+00
        96         5        6.701860e-01
        97         5       -3.702757e-01
        98         5       -1.285581e+00
        99         5       -6.648822e-02
       100         5        3.389620e-01
;

param theta:=
    1        4.015571e-01
    2       -1.374474e+00
    3       -1.670557e+00
    4       -6.260973e-02
    5        4.084764e-01
;
param X_true:=
    1       -3.233283e-01
    2       -2.611228e+00
    3        2.134080e+00
    4       -8.614920e-01
    5        3.596906e-01
    6       -2.995024e+00
    7       -1.619981e+00
    8       -5.069077e+00
    9        2.179086e-01
   10       -1.694595e+00
   11        5.023836e+00
   12        3.035881e+00
   13        8.852514e-01
   14        4.154126e+00
   15        3.912451e+00
   16        9.807646e-01
   17       -4.249318e+00
   18        2.287854e+00
   19        1.199098e+00
   20        2.319878e+00
   21        3.316638e+00
   22        1.405367e+00
   23        4.915899e+00
   24        3.041794e-02
   25        6.468826e-01
   26        2.732755e+00
   27        1.041801e+00
   28       -4.522800e-01
   29       -1.020381e+00
   30       -1.738935e+00
   31        4.384411e+00
   32        9.933110e-03
   33        2.054650e+00
   34        4.401078e-01
   35       -1.226970e+00
   36        1.620702e+00
   37        7.800960e-01
   38        8.901417e-01
   39        8.227910e-01
   40        3.216476e+00
   41        4.801094e-01
   42       -1.776979e+00
   43        1.794851e+00
   44       -1.783079e+00
   45        3.789770e-01
   46       -4.492590e+00
   47       -1.132565e+00
   48        2.640147e+00
   49        2.346919e+00
   50        1.002617e+00
   51       -7.612314e-02
   52        4.611799e+00
   53        7.929606e-01
   54       -2.065627e+00
   55       -4.011692e+00
   56       -3.733990e+00
   57       -1.341734e+00
   58       -6.832020e-01
   59       -4.318628e+00
   60       -6.612019e-01
   61       -4.666783e+00
   62        3.996169e+00
   63       -3.772683e-01
   64        6.310855e-01
   65        2.369637e+00
   66       -7.392567e-02
   67        8.295651e-03
   68        9.199265e-01
   69       -6.245174e-02
   70       -1.968215e+00
   71        3.210528e+00
   72        9.005733e-01
   73        8.948927e-01
   74        2.296851e+00
   75       -2.049917e+00
   76        3.052549e+00
   77       -2.394236e+00
   78       -2.113971e+00
   79       -1.967511e+00
   80        9.452067e+00
   81        4.925905e+00
   82        2.487958e-01
   83       -2.191593e+00
   84        2.000174e+00
   85       -3.413203e-01
   86        1.381190e+00
   87        1.581951e+00
   88       -4.404061e+00
   89        2.660691e+00
   90       -3.791006e+00
   91       -4.456171e-02
   92       -3.132979e-02
   93       -6.518297e-01
   94       -3.997686e-01
   95        6.025379e-01
   96       -5.866767e-01
   97       -2.025367e+00
   98       -4.902388e+00
   99        2.256343e+00
  100        4.353208e+00
;
param X:=
    1        1.692419e+00
    2        6.939115e-01
    3        2.134080e+00
    4       -8.614920e-01
    5       -1.420470e+00
    6        7.652145e-02
    7        2.591436e+00
    8       -5.069077e+00
    9        2.179086e-01
   10       -2.578226e-01
   11        3.867468e-01
   12        2.077766e+00
   13        1.068353e+00
   14       -1.811552e-02
   15        3.912451e+00
   16        9.807646e-01
   17        1.702404e-01
   18        7.512174e-02
   19        1.199098e+00
   20        1.068092e+00
   21       -2.260115e-01
   22        1.405367e+00
   23        4.915899e+00
   24        9.121755e-02
   25        5.985831e-01
   26        1.198745e+00
   27       -1.060547e+00
   28       -9.841721e-01
   29       -1.020381e+00
   30       -1.137595e+00
   31        6.911395e-01
   32        9.933110e-03
   33        8.568881e-01
   34       -3.014907e-01
   35       -1.498211e+00
   36        1.564421e-01
   37       -5.188698e-01
   38        8.901417e-01
   39       -1.330764e+00
   40       -2.051253e+00
   41       -4.483173e-01
   42       -6.490590e-01
   43       -1.535864e+00
   44        3.528223e-01
   45        3.789770e-01
   46       -1.303128e+00
   47        2.804217e-01
   48       -1.646755e+00
   49       -3.306463e-01
   50       -2.318105e+00
   51       -7.612314e-02
   52        6.169963e-01
   53        6.153172e-01
   54       -9.315055e-01
   55        2.185120e+00
   56        8.965719e-01
   57       -1.341734e+00
   58       -6.832020e-01
   59       -2.046177e+00
   60       -6.612019e-01
   61       -3.738495e-01
   62       -3.313233e-01
   63        7.044495e-01
   64       -6.919957e-01
   65        2.291706e+00
   66        4.416167e-01
   67        2.264119e-01
   68        9.199265e-01
   69       -6.245174e-02
   70        5.355985e-01
   71       -4.679866e-01
   72        5.968780e-01
   73        1.039518e+00
   74        2.296851e+00
   75       -1.455934e+00
   76       -1.384392e+00
   77       -1.189285e+00
   78        5.766724e-01
   79       -1.967511e+00
   80       -8.721262e-03
   81        4.925905e+00
   82        2.487958e-01
   83       -1.183359e+00
   84        2.000174e+00
   85       -8.215663e-01
   86        1.295356e+00
   87       -1.524170e+00
   88        3.446185e-01
   89        4.354566e-02
   90       -1.758506e+00
   91       -4.456171e-02
   92        1.772499e+00
   93       -1.615830e+00
   94       -3.997686e-01
   95        9.762752e-01
   96       -1.281198e+00
   97       -1.769699e-01
   98       -1.479371e+00
   99       -1.994380e+00
  100       -7.897504e-01
;
param outliervec:=
    1    1
    2    1
    3    0
    4    0
    5    1
    6    1
    7    1
    8    0
    9    0
   10    1
   11    1
   12    1
   13    1
   14    1
   15    0
   16    0
   17    1
   18    1
   19    0
   20    1
   21    1
   22    0
   23    0
   24    1
   25    1
   26    1
   27    1
   28    1
   29    0
   30    1
   31    1
   32    0
   33    1
   34    1
   35    1
   36    1
   37    1
   38    0
   39    1
   40    1
   41    1
   42    1
   43    1
   44    1
   45    0
   46    1
   47    1
   48    1
   49    1
   50    1
   51    0
   52    1
   53    1
   54    1
   55    1
   56    1
   57    0
   58    0
   59    1
   60    0
   61    1
   62    1
   63    1
   64    1
   65    1
   66    1
   67    1
   68    0
   69    0
   70    1
   71    1
   72    1
   73    1
   74    0
   75    1
   76    1
   77    1
   78    1
   79    0
   80    1
   81    0
   82    0
   83    1
   84    0
   85    1
   86    1
   87    1
   88    1
   89    1
   90    1
   91    0
   92    1
   93    1
   94    0
   95    1
   96    1
   97    1
   98    1
   99    1
  100    1
;